c "223165.clq"
p edge 141 548
e 1 5
e 1 6
e 1 7
e 1 9
e 1 10
e 1 11
e 1 12
e 1 13
e 1 16
e 1 19
e 1 20
e 1 25
e 1 28
e 1 30
e 1 32
e 1 38
e 1 43
e 1 46
e 1 56
e 1 57
e 1 60
e 1 70
e 1 75
e 1 76
e 1 86
e 1 90
e 1 93
e 1 95
e 1 104
e 1 111
e 1 114
e 1 121
e 2 5
e 2 9
e 2 10
e 2 51
e 2 96
e 2 102
e 3 5
e 3 6
e 3 7
e 3 9
e 3 10
e 3 11
e 3 12
e 3 13
e 3 14
e 3 26
e 3 28
e 3 60
e 3 72
e 3 76
e 3 88
e 3 96
e 3 100
e 3 109
e 3 116
e 3 121
e 3 125
e 4 5
e 4 6
e 4 7
e 4 8
e 4 13
e 4 14
e 4 15
e 4 24
e 4 28
e 4 33
e 4 57
e 4 61
e 4 71
e 4 79
e 4 85
e 4 107
e 4 128
e 4 136
e 5 6
e 5 7
e 5 8
e 5 13
e 5 17
e 5 21
e 5 24
e 5 28
e 5 35
e 5 37
e 5 49
e 5 51
e 5 58
e 5 69
e 5 81
e 5 82
e 5 105
e 5 106
e 5 107
e 5 108
e 5 109
e 5 111
e 5 116
e 5 125
e 5 130
e 5 134
e 6 8
e 6 11
e 6 12
e 6 16
e 6 17
e 6 19
e 6 20
e 6 34
e 6 39
e 6 40
e 6 41
e 6 51
e 6 75
e 6 76
e 6 86
e 6 98
e 6 104
e 6 105
e 6 111
e 6 117
e 6 123
e 6 129
e 6 136
e 6 138
e 7 8
e 7 22
e 7 23
e 7 32
e 7 33
e 7 47
e 7 71
e 7 72
e 7 73
e 7 85
e 8 9
e 8 10
e 8 11
e 8 14
e 8 16
e 8 20
e 8 21
e 8 22
e 8 24
e 8 25
e 8 30
e 8 34
e 8 37
e 8 39
e 8 40
e 8 42
e 8 45
e 8 49
e 8 50
e 8 52
e 8 53
e 8 61
e 8 68
e 8 71
e 8 74
e 8 77
e 8 79
e 8 83
e 8 85
e 8 86
e 8 87
e 8 91
e 8 94
e 8 100
e 8 102
e 8 106
e 8 111
e 8 112
e 8 119
e 8 129
e 8 131
e 8 139
e 9 17
e 9 18
e 9 32
e 9 54
e 9 66
e 9 80
e 9 87
e 9 89
e 9 93
e 9 114
e 9 115
e 10 12
e 10 16
e 10 23
e 10 25
e 10 29
e 10 43
e 10 48
e 10 50
e 10 63
e 10 77
e 10 88
e 10 98
e 10 101
e 10 127
e 11 26
e 11 56
e 11 59
e 11 75
e 11 94
e 11 102
e 12 14
e 12 15
e 12 27
e 12 29
e 12 31
e 12 35
e 12 36
e 12 38
e 12 41
e 12 47
e 12 48
e 12 66
e 12 80
e 12 81
e 12 92
e 12 96
e 12 128
e 13 15
e 13 17
e 13 18
e 13 19
e 13 21
e 13 33
e 13 36
e 13 41
e 13 52
e 13 55
e 13 57
e 13 59
e 13 67
e 13 88
e 13 94
e 13 99
e 13 101
e 13 107
e 13 112
e 13 117
e 13 134
e 13 139
e 14 15
e 14 18
e 14 26
e 14 30
e 14 37
e 14 39
e 14 60
e 14 67
e 14 82
e 14 97
e 14 129
e 15 33
e 15 40
e 15 47
e 15 64
e 15 78
e 15 83
e 15 108
e 15 129
e 16 18
e 16 19
e 16 34
e 16 52
e 16 58
e 16 65
e 16 66
e 16 81
e 16 124
e 16 128
e 17 20
e 17 23
e 17 24
e 17 27
e 17 29
e 17 39
e 17 40
e 17 41
e 17 51
e 17 53
e 17 54
e 17 68
e 17 95
e 17 96
e 17 99
e 17 104
e 17 110
e 17 120
e 17 121
e 17 126
e 17 131
e 18 64
e 18 84
e 18 90
e 19 26
e 19 29
e 19 35
e 19 46
e 19 53
e 19 101
e 20 21
e 20 22
e 20 23
e 20 25
e 20 30
e 20 36
e 20 42
e 20 64
e 20 74
e 20 77
e 20 78
e 20 110
e 20 112
e 20 122
e 20 138
e 20 140
e 21 22
e 21 31
e 21 45
e 21 102
e 21 109
e 22 45
e 22 69
e 22 92
e 22 106
e 22 130
e 23 31
e 23 56
e 23 103
e 23 118
e 23 126
e 24 27
e 24 37
e 24 58
e 24 117
e 24 120
e 24 123
e 25 27
e 25 31
e 25 35
e 25 67
e 25 78
e 25 99
e 25 103
e 25 137
e 26 110
e 27 61
e 27 83
e 27 92
e 27 124
e 28 32
e 28 34
e 28 48
e 28 59
e 28 62
e 28 119
e 28 120
e 28 123
e 29 38
e 29 42
e 29 44
e 29 50
e 29 60
e 29 72
e 29 100
e 29 113
e 29 121
e 29 124
e 30 36
e 30 43
e 30 49
e 30 62
e 30 65
e 30 69
e 30 115
e 30 126
e 31 44
e 32 45
e 32 52
e 32 62
e 32 84
e 32 93
e 32 126
e 32 130
e 32 135
e 33 44
e 33 56
e 33 74
e 33 84
e 33 92
e 34 55
e 35 76
e 35 118
e 36 43
e 36 44
e 36 48
e 36 49
e 36 50
e 36 54
e 36 55
e 36 61
e 36 67
e 36 71
e 36 78
e 36 89
e 36 90
e 36 116
e 36 124
e 36 132
e 36 137
e 36 140
e 36 141
e 37 38
e 37 59
e 37 95
e 37 98
e 37 136
e 37 137
e 38 47
e 38 105
e 38 135
e 39 53
e 39 79
e 39 89
e 39 108
e 39 122
e 39 133
e 40 42
e 41 63
e 41 70
e 41 77
e 41 79
e 41 87
e 41 91
e 41 107
e 41 133
e 42 65
e 42 66
e 42 82
e 42 90
e 42 137
e 43 46
e 44 46
e 44 62
e 44 85
e 44 88
e 44 114
e 44 120
e 45 58
e 45 64
e 45 73
e 45 115
e 45 122
e 46 54
e 46 63
e 46 114
e 47 69
e 48 63
e 48 97
e 49 68
e 49 70
e 52 65
e 52 74
e 52 81
e 52 86
e 52 93
e 52 134
e 52 141
e 53 55
e 54 57
e 54 72
e 54 103
e 54 109
e 55 73
e 55 91
e 55 97
e 55 100
e 55 132
e 56 94
e 56 101
e 56 103
e 56 133
e 56 134
e 57 83
e 57 99
e 57 116
e 57 118
e 58 140
e 60 70
e 60 127
e 60 135
e 61 91
e 64 75
e 64 80
e 64 89
e 64 131
e 64 136
e 65 139
e 66 141
e 67 68
e 67 87
e 68 82
e 68 97
e 68 138
e 70 73
e 72 80
e 72 104
e 72 132
e 76 119
e 80 84
e 82 95
e 82 113
e 82 123
e 83 135
e 84 110
e 86 115
e 87 113
e 92 117
e 93 127
e 95 98
e 95 108
e 96 119
e 97 113
e 98 133
e 99 112
e 100 105
e 100 106
e 100 139
e 106 141
e 108 118
e 108 125
e 108 128
e 110 131
e 110 132
e 111 127
e 113 138
e 115 130
e 117 122
e 122 125
e 124 140
